benchmarks/VRPTW/TSPTW/ins/n100w60.003.txt


!! n100w60.003    58.93 882


CUST NO.   XCOORD.   YCOORD.    DEMAND   READY TIME   DUE DATE   SERVICE TIME


    1      13.00      46.00       0.00       0.00     884.00       0.00
    2      24.00      23.00       0.00     460.00     501.00       0.00
    3       3.00      18.00       0.00      23.00     114.00       0.00
    4      45.00      37.00       0.00     315.00     365.00       0.00
    5       4.00       3.00       0.00      74.00     155.00       0.00
    6      28.00       7.00       0.00     114.00     219.00       0.00
    7       2.00       0.00       0.00     141.00     252.00       0.00
    8      42.00      35.00       0.00     345.00     383.00       0.00
    9      32.00      37.00       0.00     392.00     465.00       0.00
   10       4.00       2.00       0.00     779.00     839.00       0.00
   11      39.00      25.00       0.00     317.00     377.00       0.00
   12      24.00      18.00       0.00     192.00     292.00       0.00
   13      34.00      30.00       0.00     364.00     435.00       0.00
   14      48.00      24.00       0.00     733.00     798.00       0.00
   15      42.00      13.00       0.00     225.00     267.00       0.00
   16       9.00      43.00       0.00       0.00      21.00       0.00
   17       8.00       3.00       0.00      72.00     165.00       0.00
   18      36.00      14.00       0.00     266.00     340.00       0.00
   19      35.00      39.00       0.00     358.00     394.00       0.00
   20       3.00       7.00       0.00      42.00     122.00       0.00
   21      24.00      11.00       0.00     427.00     476.00       0.00
   22      10.00      16.00       0.00     176.00     235.00       0.00
   23       1.00      28.00       0.00      16.00     117.00       0.00
   24      12.00       4.00       0.00      75.00     168.00       0.00
   25      33.00      45.00       0.00     576.00     637.00       0.00
   26      19.00      23.00       0.00     529.00     586.00       0.00
   27      36.00      25.00       0.00     293.00     351.00       0.00
   28       1.00       9.00       0.00      41.00     103.00       0.00
   29      15.00      18.00       0.00     458.00     502.00       0.00
   30      46.00      43.00       0.00     656.00     722.00       0.00
   31      42.00      37.00       0.00     322.00     349.00       0.00
   32      42.00      23.00       0.00     387.00     485.00       0.00
   33      20.00       9.00       0.00     149.00     212.00       0.00
   34      30.00      29.00       0.00     370.00     432.00       0.00
   35      20.00      35.00       0.00       0.00      63.00       0.00
   36      11.00      43.00       0.00       0.00      15.00       0.00
   37      10.00      30.00       0.00     447.00     563.00       0.00
   38      37.00      36.00       0.00     360.00     399.00       0.00
   39       3.00      33.00       0.00      49.00      65.00       0.00
   40      31.00       0.00       0.00      98.00     160.00       0.00
   41      38.00      10.00       0.00     235.00     283.00       0.00
   42      16.00      36.00       0.00       0.00      47.00       0.00
   43      36.00      31.00       0.00     369.00     398.00       0.00
   44      46.00      12.00       0.00     252.00     276.00       0.00
   45      23.00       1.00       0.00     138.00     155.00       0.00
   46       7.00      14.00       0.00      61.00      91.00       0.00
   47      42.00      28.00       0.00     316.00     393.00       0.00
   48       5.00       7.00       0.00      67.00     143.00       0.00
   49      17.00      48.00       0.00     562.00     644.00       0.00
   50      38.00      20.00       0.00     278.00     351.00       0.00
   51      47.00       4.00       0.00     217.00     306.00       0.00
   52      28.00      20.00       0.00     276.00     343.00       0.00
   53      19.00      32.00       0.00     520.00     560.00       0.00
   54      16.00       1.00       0.00     123.00     156.00       0.00
   55      30.00      19.00       0.00     222.00     269.00       0.00
   56      23.00      49.00       0.00     597.00     619.00       0.00
   57      32.00      27.00       0.00     289.00     351.00       0.00
   58      14.00      46.00       0.00     621.00     687.00       0.00
   59      31.00      38.00       0.00     551.00     578.00       0.00
   60      39.00      41.00       0.00     317.00     405.00       0.00
   61       9.00      35.00       0.00      13.00      91.00       0.00
   62       1.00      48.00       0.00     705.00     757.00       0.00
   63      45.00      11.00       0.00     231.00     315.00       0.00
   64      23.00      37.00       0.00     538.00     606.00       0.00
   65       2.00      24.00       0.00      56.00      87.00       0.00
   66      14.00      40.00       0.00      13.00      42.00       0.00
   67      16.00      36.00       0.00       0.00      38.00       0.00
   68       9.00      41.00       0.00       0.00      16.00       0.00
   69      44.00       5.00       0.00     434.00     495.00       0.00
   70      25.00      48.00       0.00     551.00     612.00       0.00
   71      16.00      32.00       0.00       0.00      85.00       0.00
   72      13.00       6.00       0.00      68.00     153.00       0.00
   73      33.00       8.00       0.00     131.00     205.00       0.00
   74       3.00       9.00       0.00      57.00     101.00       0.00
   75      28.00      32.00       0.00     360.00     413.00       0.00
   76      12.00      40.00       0.00       0.00      23.00       0.00
   77       8.00      40.00       0.00       0.00      73.00       0.00
   78      17.00      10.00       0.00     117.00     135.00       0.00
   79      15.00       2.00       0.00     138.00     198.00       0.00
   80      19.00      32.00       0.00       0.00      64.00       0.00
   81      13.00       7.00       0.00      99.00     132.00       0.00
   82      35.00       2.00       0.00     266.00     333.00       0.00
   83      35.00      15.00       0.00     191.00     264.00       0.00
   84       9.00      40.00       0.00       0.00      26.00       0.00
   85      13.00       6.00       0.00      85.00     150.00       0.00
   86      17.00      21.00       0.00     189.00     248.00       0.00
   87       3.00       7.00       0.00     156.00     243.00       0.00
   88      25.00       5.00       0.00     131.00     225.00       0.00
   89       0.00      31.00       0.00     472.00     534.00       0.00
   90      48.00      37.00       0.00     330.00     387.00       0.00
   91      41.00      44.00       0.00     344.00     392.00       0.00
   92      42.00      34.00       0.00     294.00     370.00       0.00
   93      42.00       7.00       0.00     240.00     306.00       0.00
   94      20.00      20.00       0.00     229.00     261.00       0.00
   95      25.00      11.00       0.00     132.00     218.00       0.00
   96      16.00      43.00       0.00     579.00     614.00       0.00
   97      25.00      35.00       0.00     374.00     412.00       0.00
   98       4.00      18.00       0.00      28.00      85.00       0.00
   99      28.00      18.00       0.00     224.00     275.00       0.00
  100      29.00      31.00       0.00     382.00     460.00       0.00
  101      42.00       6.00       0.00     765.00     824.00       0.00
  999       0.00       0.00       0.00       0.00       0.00       0.00
