benchmarks/VRPTW/TSPTW/solution/n100w60.003.txt.solution
1 36 16 68 77 84 76 66 67 42 35 80 71 61 39 23 65 98 3 46 74 28 20 48 5 17 24 85 72 81 78 79 54 45 88 40 73 6 95 33 7 87 22 86 94 12 99 55 83 41 15 63 44 51 93 82 18 52 57 27 50 11 47 92 8 31 4 90 91 60 19 38 43 9 97 75 100 34 13 32 69 21 2 29 89 37 26 53 64 59 25 70 56 96 58 49 30 62 14 101 10 
744
